(set-info :smt-lib-version 2.6)
(set-logic QF_NIA)
(set-info :source |
Generated by: Cristina Borralleras, Daniel Larraz, Albert Oliveras, Enric Rodriguez-Carbonell, Albert Rubio
Generated on: 2017-04-27
Generator: VeryMax
Application: Termination proving
Target solver: barcelogic
|)
(set-info :license "https://creativecommons.org/licenses/by/4.0/")
(set-info :category "industrial")
(set-info :status unknown)
(declare-fun Nl2main_i1 () Int)
(declare-fun Nl2main_w1 () Int)
(declare-fun Nl2main_i2 () Int)
(declare-fun Nl2main_w2 () Int)
(declare-fun lam0n0 () Int)
(declare-fun lam0n1 () Int)
(declare-fun lam0n2 () Int)
(declare-fun lam0n3 () Int)
(declare-fun lam0n4 () Int)
(declare-fun lam0n5 () Int)
(declare-fun Nl2CT1 () Int)
(declare-fun Nl2CT2 () Int)
(declare-fun lam1n0 () Int)
(declare-fun lam1n1 () Int)
(declare-fun lam1n2 () Int)
(declare-fun lam1n3 () Int)
(declare-fun lam1n4 () Int)
(declare-fun lam1n5 () Int)
(declare-fun lam2n0 () Int)
(declare-fun lam2n1 () Int)
(declare-fun lam2n2 () Int)
(declare-fun lam2n3 () Int)
(declare-fun lam2n4 () Int)
(declare-fun lam2n5 () Int)
(declare-fun lam3n0 () Int)
(declare-fun lam3n1 () Int)
(declare-fun lam3n2 () Int)
(declare-fun lam3n3 () Int)
(declare-fun lam3n4 () Int)
(declare-fun lam3n5 () Int)
(declare-fun lam4n0 () Int)
(declare-fun lam4n1 () Int)
(declare-fun lam4n2 () Int)
(declare-fun lam4n3 () Int)
(declare-fun lam4n4 () Int)
(declare-fun lam4n5 () Int)
(declare-fun lam5n0 () Int)
(declare-fun lam5n1 () Int)
(declare-fun lam5n2 () Int)
(declare-fun lam5n3 () Int)
(declare-fun lam5n4 () Int)
(declare-fun lam5n5 () Int)
(declare-fun lam6n0 () Int)
(declare-fun lam6n1 () Int)
(declare-fun lam6n3 () Int)
(declare-fun lam6n2 () Int)
(declare-fun lam7n0 () Int)
(declare-fun lam7n1 () Int)
(declare-fun lam7n3 () Int)
(declare-fun lam7n2 () Int)
(declare-fun lam8n0 () Int)
(declare-fun lam8n2 () Int)
(declare-fun lam8n1 () Int)
(declare-fun lam9n0 () Int)
(declare-fun lam9n2 () Int)
(declare-fun lam9n1 () Int)
(declare-fun main_i () Int)
(declare-fun main_w () Int)
(declare-fun undef2 () Int)
(declare-fun lam13n0 () Int)
(declare-fun lam13n1 () Int)
(declare-fun lam13n2 () Int)
(declare-fun lam13n3 () Int)
(declare-fun lam13n4 () Int)
(declare-fun lam13n5 () Int)
(declare-fun RFN1_CT () Int)
(declare-fun RFN1_main_i () Int)
(declare-fun RFN1_main_w () Int)
(declare-fun lam17n0 () Int)
(declare-fun lam17n1 () Int)
(declare-fun lam17n2 () Int)
(declare-fun lam17n3 () Int)
(declare-fun lam17n4 () Int)
(declare-fun lam17n5 () Int)
(declare-fun lam11n0 () Int)
(declare-fun lam11n1 () Int)
(declare-fun lam11n2 () Int)
(declare-fun lam11n3 () Int)
(declare-fun lam11n4 () Int)
(declare-fun lam11n5 () Int)
(declare-fun lam12n0 () Int)
(declare-fun lam12n1 () Int)
(declare-fun lam12n2 () Int)
(declare-fun lam12n3 () Int)
(declare-fun lam12n4 () Int)
(declare-fun lam12n5 () Int)
(declare-fun lam15n0 () Int)
(declare-fun lam15n1 () Int)
(declare-fun lam15n2 () Int)
(declare-fun lam15n3 () Int)
(declare-fun lam15n4 () Int)
(declare-fun lam15n5 () Int)
(declare-fun lam16n0 () Int)
(declare-fun lam16n1 () Int)
(declare-fun lam16n2 () Int)
(declare-fun lam16n3 () Int)
(declare-fun lam16n4 () Int)
(declare-fun lam16n5 () Int)
(declare-fun lam10n0 () Int)
(declare-fun lam10n1 () Int)
(declare-fun lam10n2 () Int)
(declare-fun lam10n3 () Int)
(declare-fun lam10n4 () Int)
(declare-fun lam10n5 () Int)
(declare-fun lam14n0 () Int)
(declare-fun lam14n1 () Int)
(declare-fun lam14n2 () Int)
(declare-fun lam14n3 () Int)
(declare-fun lam14n4 () Int)
(declare-fun lam14n5 () Int)
(assert ( and ( <= ( - 1 ) Nl2main_i1 ) ( <= Nl2main_i1 1 ) ( <= ( - 1 ) Nl2main_w1 ) ( <= Nl2main_w1 1 ) ( <= ( - 1 ) Nl2main_i2 ) ( <= Nl2main_i2 1 ) ( <= ( - 1 ) Nl2main_w2 ) ( <= Nl2main_w2 1 ) ))
(assert ( or ( and ( >= lam0n0 0 ) ( >= lam0n1 0 ) ( >= lam0n2 0 ) ( >= lam0n3 0 ) ( >= lam0n4 0 ) ( >= lam0n5 0 ) ( > ( + ( * 1 lam0n1 ) ( * 1 lam0n2 ) ( * 1 lam0n3 ) ( * Nl2CT1 lam0n4 ) ( * Nl2CT2 lam0n5 ) ( - 1 ) ) 0 ) ( = ( + ( * 1 lam0n0 ) ( * 1 lam0n1 ) ( * 1 lam0n2 ) ( * Nl2main_i1 lam0n4 ) ( * Nl2main_i2 lam0n5 ) ) 0 ) ( = ( + ( * ( - 1 ) lam0n0 ) ( * 1 lam0n2 ) ( * ( - 1 ) lam0n3 ) ( * Nl2main_w1 lam0n4 ) ( * Nl2main_w2 lam0n5 ) ) 0 ) ) ( and ( >= lam1n0 0 ) ( >= lam1n1 0 ) ( >= lam1n2 0 ) ( >= lam1n3 0 ) ( >= lam1n4 0 ) ( >= lam1n5 0 ) ( > ( + ( * 1 lam1n1 ) ( * 1 lam1n2 ) ( * 1 lam1n3 ) ( * Nl2CT1 lam1n4 ) ( * Nl2CT2 lam1n5 ) ( - 1 ( + ( + Nl2CT1 ( * Nl2main_i1 1 ) ) ( * Nl2main_w1 1 ) ) ) ) 0 ) ( = ( + ( * 1 lam1n0 ) ( * 1 lam1n1 ) ( * 1 lam1n2 ) ( * Nl2main_i1 lam1n4 ) ( * Nl2main_i2 lam1n5 ) ( - ( + 0 ( * Nl2main_i1 ( - 1 ) ) ) ) ) 0 ) ( = ( + ( * ( - 1 ) lam1n0 ) ( * 1 lam1n2 ) ( * ( - 1 ) lam1n3 ) ( * Nl2main_w1 lam1n4 ) ( * Nl2main_w2 lam1n5 ) ( - ( + 0 ( * Nl2main_w1 1 ) ) ) ) 0 ) ) ))
(assert ( or ( and ( >= lam0n0 0 ) ( >= lam0n1 0 ) ( >= lam0n2 0 ) ( >= lam0n3 0 ) ( >= lam0n4 0 ) ( >= lam0n5 0 ) ( > ( + ( * 1 lam0n1 ) ( * 1 lam0n2 ) ( * 1 lam0n3 ) ( * Nl2CT1 lam0n4 ) ( * Nl2CT2 lam0n5 ) ( - 1 ) ) 0 ) ( = ( + ( * 1 lam0n0 ) ( * 1 lam0n1 ) ( * 1 lam0n2 ) ( * Nl2main_i1 lam0n4 ) ( * Nl2main_i2 lam0n5 ) ) 0 ) ( = ( + ( * ( - 1 ) lam0n0 ) ( * 1 lam0n2 ) ( * ( - 1 ) lam0n3 ) ( * Nl2main_w1 lam0n4 ) ( * Nl2main_w2 lam0n5 ) ) 0 ) ) ( and ( >= lam2n0 0 ) ( >= lam2n1 0 ) ( >= lam2n2 0 ) ( >= lam2n3 0 ) ( >= lam2n4 0 ) ( >= lam2n5 0 ) ( > ( + ( * 1 lam2n1 ) ( * 1 lam2n2 ) ( * 1 lam2n3 ) ( * Nl2CT1 lam2n4 ) ( * Nl2CT2 lam2n5 ) ( - 1 ( + ( + Nl2CT2 ( * Nl2main_i2 1 ) ) ( * Nl2main_w2 1 ) ) ) ) 0 ) ( = ( + ( * 1 lam2n0 ) ( * 1 lam2n1 ) ( * 1 lam2n2 ) ( * Nl2main_i1 lam2n4 ) ( * Nl2main_i2 lam2n5 ) ( - ( + 0 ( * Nl2main_i2 ( - 1 ) ) ) ) ) 0 ) ( = ( + ( * ( - 1 ) lam2n0 ) ( * 1 lam2n2 ) ( * ( - 1 ) lam2n3 ) ( * Nl2main_w1 lam2n4 ) ( * Nl2main_w2 lam2n5 ) ( - ( + 0 ( * Nl2main_w2 1 ) ) ) ) 0 ) ) ))
(assert ( or ( and ( >= lam3n0 0 ) ( >= lam3n1 0 ) ( >= lam3n2 0 ) ( >= lam3n3 0 ) ( >= lam3n4 0 ) ( >= lam3n5 0 ) ( > ( + ( * 1 lam3n1 ) ( * 1 lam3n2 ) ( * 1 lam3n3 ) ( * Nl2CT1 lam3n4 ) ( * Nl2CT2 lam3n5 ) ( - 1 ) ) 0 ) ( = ( + ( * ( - 1 ) lam3n0 ) ( * ( - 1 ) lam3n1 ) ( * ( - 1 ) lam3n2 ) ( * Nl2main_i1 lam3n4 ) ( * Nl2main_i2 lam3n5 ) ) 0 ) ( = ( + ( * ( - 1 ) lam3n0 ) ( * 1 lam3n2 ) ( * ( - 1 ) lam3n3 ) ( * Nl2main_w1 lam3n4 ) ( * Nl2main_w2 lam3n5 ) ) 0 ) ) ( and ( >= lam4n0 0 ) ( >= lam4n1 0 ) ( >= lam4n2 0 ) ( >= lam4n3 0 ) ( >= lam4n4 0 ) ( >= lam4n5 0 ) ( > ( + ( * 1 lam4n1 ) ( * 1 lam4n2 ) ( * 1 lam4n3 ) ( * Nl2CT1 lam4n4 ) ( * Nl2CT2 lam4n5 ) ( - 1 ( + ( + Nl2CT1 ( * Nl2main_i1 ( - 1 ) ) ) ( * Nl2main_w1 1 ) ) ) ) 0 ) ( = ( + ( * ( - 1 ) lam4n0 ) ( * ( - 1 ) lam4n1 ) ( * ( - 1 ) lam4n2 ) ( * Nl2main_i1 lam4n4 ) ( * Nl2main_i2 lam4n5 ) ( - ( + 0 ( * Nl2main_i1 ( - 1 ) ) ) ) ) 0 ) ( = ( + ( * ( - 1 ) lam4n0 ) ( * 1 lam4n2 ) ( * ( - 1 ) lam4n3 ) ( * Nl2main_w1 lam4n4 ) ( * Nl2main_w2 lam4n5 ) ( - ( + 0 ( * Nl2main_w1 1 ) ) ) ) 0 ) ) ))
(assert ( or ( and ( >= lam3n0 0 ) ( >= lam3n1 0 ) ( >= lam3n2 0 ) ( >= lam3n3 0 ) ( >= lam3n4 0 ) ( >= lam3n5 0 ) ( > ( + ( * 1 lam3n1 ) ( * 1 lam3n2 ) ( * 1 lam3n3 ) ( * Nl2CT1 lam3n4 ) ( * Nl2CT2 lam3n5 ) ( - 1 ) ) 0 ) ( = ( + ( * ( - 1 ) lam3n0 ) ( * ( - 1 ) lam3n1 ) ( * ( - 1 ) lam3n2 ) ( * Nl2main_i1 lam3n4 ) ( * Nl2main_i2 lam3n5 ) ) 0 ) ( = ( + ( * ( - 1 ) lam3n0 ) ( * 1 lam3n2 ) ( * ( - 1 ) lam3n3 ) ( * Nl2main_w1 lam3n4 ) ( * Nl2main_w2 lam3n5 ) ) 0 ) ) ( and ( >= lam5n0 0 ) ( >= lam5n1 0 ) ( >= lam5n2 0 ) ( >= lam5n3 0 ) ( >= lam5n4 0 ) ( >= lam5n5 0 ) ( > ( + ( * 1 lam5n1 ) ( * 1 lam5n2 ) ( * 1 lam5n3 ) ( * Nl2CT1 lam5n4 ) ( * Nl2CT2 lam5n5 ) ( - 1 ( + ( + Nl2CT2 ( * Nl2main_i2 ( - 1 ) ) ) ( * Nl2main_w2 1 ) ) ) ) 0 ) ( = ( + ( * ( - 1 ) lam5n0 ) ( * ( - 1 ) lam5n1 ) ( * ( - 1 ) lam5n2 ) ( * Nl2main_i1 lam5n4 ) ( * Nl2main_i2 lam5n5 ) ( - ( + 0 ( * Nl2main_i2 ( - 1 ) ) ) ) ) 0 ) ( = ( + ( * ( - 1 ) lam5n0 ) ( * 1 lam5n2 ) ( * ( - 1 ) lam5n3 ) ( * Nl2main_w1 lam5n4 ) ( * Nl2main_w2 lam5n5 ) ( - ( + 0 ( * Nl2main_w2 1 ) ) ) ) 0 ) ) ))
(assert ( or ( and ( <= ( + main_i ( * ( - 1 ) main_w ) ) 0 ) ( not ( <= ( + ( * ( - 1 ) main_i ) ( * ( - 1 ) main_w ) ) 0 ) ) ( = ( + main_i ( * ( - 1 ) undef2 ) ) 0 ) ( = ( + ( - 5 ) main_w ) 0 ) ( <= ( + Nl2CT1 ( * ( + 0 Nl2main_i1 ) main_i ) ( * ( + 0 Nl2main_w1 ) main_w ) ) 0 ) ( <= ( + Nl2CT2 ( * ( + 0 Nl2main_i2 ) main_i ) ( * ( + 0 Nl2main_w2 ) main_w ) ) 0 ) ) ( and ( not ( <= ( + main_i ( * ( - 1 ) main_w ) ) 0 ) ) ( = ( + main_i ( * ( - 1 ) undef2 ) ) 0 ) ( = ( + ( - 5 ) main_w ) 0 ) ( <= ( + Nl2CT1 ( * ( + 0 Nl2main_i1 ) main_i ) ( * ( + 0 Nl2main_w1 ) main_w ) ) 0 ) ( <= ( + Nl2CT2 ( * ( + 0 Nl2main_i2 ) main_i ) ( * ( + 0 Nl2main_w2 ) main_w ) ) 0 ) ) ))
(assert ( or ( and ( and ( and ( >= lam13n0 0 ) ( >= lam13n1 0 ) ( >= lam13n2 0 ) ( >= lam13n3 0 ) ( >= lam13n4 0 ) ( >= lam13n5 0 ) ( > ( + ( * 1 lam13n1 ) ( * 1 lam13n2 ) ( * 1 lam13n3 ) ( * Nl2CT1 lam13n4 ) ( * Nl2CT2 lam13n5 ) ( - 1 ( - ( + ( + RFN1_CT ( * RFN1_main_i 1 ) ) ( * RFN1_main_w 1 ) ) RFN1_CT ) ) ) 0 ) ( = ( + ( * 1 lam13n0 ) ( * 1 lam13n1 ) ( * 1 lam13n2 ) ( * Nl2main_i1 lam13n4 ) ( * Nl2main_i2 lam13n5 ) ( - ( - ( + 0 ( * RFN1_main_i ( - 1 ) ) ) RFN1_main_i ) ) ) 0 ) ( = ( + ( * ( - 1 ) lam13n0 ) ( * 1 lam13n2 ) ( * ( - 1 ) lam13n3 ) ( * Nl2main_w1 lam13n4 ) ( * Nl2main_w2 lam13n5 ) ( - ( - ( + 0 ( * RFN1_main_w 1 ) ) RFN1_main_w ) ) ) 0 ) ) ( and ( >= lam17n0 0 ) ( >= lam17n1 0 ) ( >= lam17n2 0 ) ( >= lam17n3 0 ) ( >= lam17n4 0 ) ( >= lam17n5 0 ) ( > ( + ( * 1 lam17n1 ) ( * 1 lam17n2 ) ( * 1 lam17n3 ) ( * Nl2CT1 lam17n4 ) ( * Nl2CT2 lam17n5 ) ( - 1 ( - ( + ( + RFN1_CT ( * RFN1_main_i ( - 1 ) ) ) ( * RFN1_main_w 1 ) ) RFN1_CT ) ) ) 0 ) ( = ( + ( * ( - 1 ) lam17n0 ) ( * ( - 1 ) lam17n1 ) ( * ( - 1 ) lam17n2 ) ( * Nl2main_i1 lam17n4 ) ( * Nl2main_i2 lam17n5 ) ( - ( - ( + 0 ( * RFN1_main_i ( - 1 ) ) ) RFN1_main_i ) ) ) 0 ) ( = ( + ( * ( - 1 ) lam17n0 ) ( * 1 lam17n2 ) ( * ( - 1 ) lam17n3 ) ( * Nl2main_w1 lam17n4 ) ( * Nl2main_w2 lam17n5 ) ( - ( - ( + 0 ( * RFN1_main_w 1 ) ) RFN1_main_w ) ) ) 0 ) ) ) ( or ( and ( and ( >= lam11n0 0 ) ( >= lam11n1 0 ) ( >= lam11n2 0 ) ( >= lam11n3 0 ) ( >= lam11n4 0 ) ( >= lam11n5 0 ) ( > ( + ( * 1 lam11n1 ) ( * 1 lam11n2 ) ( * 1 lam11n3 ) ( * Nl2CT1 lam11n4 ) ( * Nl2CT2 lam11n5 ) ( - 1 ( - RFN1_CT ) ) ) 0 ) ( = ( + ( * 1 lam11n0 ) ( * 1 lam11n1 ) ( * 1 lam11n2 ) ( * Nl2main_i1 lam11n4 ) ( * Nl2main_i2 lam11n5 ) ( - ( - RFN1_main_i ) ) ) 0 ) ( = ( + ( * ( - 1 ) lam11n0 ) ( * 1 lam11n2 ) ( * ( - 1 ) lam11n3 ) ( * Nl2main_w1 lam11n4 ) ( * Nl2main_w2 lam11n5 ) ( - ( - RFN1_main_w ) ) ) 0 ) ) ( and ( >= lam12n0 0 ) ( >= lam12n1 0 ) ( >= lam12n2 0 ) ( >= lam12n3 0 ) ( >= lam12n4 0 ) ( >= lam12n5 0 ) ( > ( + ( * 1 lam12n1 ) ( * 1 lam12n2 ) ( * 1 lam12n3 ) ( * Nl2CT1 lam12n4 ) ( * Nl2CT2 lam12n5 ) ( - 1 ( + ( - ( + ( + RFN1_CT ( * RFN1_main_i 1 ) ) ( * RFN1_main_w 1 ) ) RFN1_CT ) 1 ) ) ) 0 ) ( = ( + ( * 1 lam12n0 ) ( * 1 lam12n1 ) ( * 1 lam12n2 ) ( * Nl2main_i1 lam12n4 ) ( * Nl2main_i2 lam12n5 ) ( - ( - ( + 0 ( * RFN1_main_i ( - 1 ) ) ) RFN1_main_i ) ) ) 0 ) ( = ( + ( * ( - 1 ) lam12n0 ) ( * 1 lam12n2 ) ( * ( - 1 ) lam12n3 ) ( * Nl2main_w1 lam12n4 ) ( * Nl2main_w2 lam12n5 ) ( - ( - ( + 0 ( * RFN1_main_w 1 ) ) RFN1_main_w ) ) ) 0 ) ) ) ( and ( and ( >= lam15n0 0 ) ( >= lam15n1 0 ) ( >= lam15n2 0 ) ( >= lam15n3 0 ) ( >= lam15n4 0 ) ( >= lam15n5 0 ) ( > ( + ( * 1 lam15n1 ) ( * 1 lam15n2 ) ( * 1 lam15n3 ) ( * Nl2CT1 lam15n4 ) ( * Nl2CT2 lam15n5 ) ( - 1 ( - RFN1_CT ) ) ) 0 ) ( = ( + ( * ( - 1 ) lam15n0 ) ( * ( - 1 ) lam15n1 ) ( * ( - 1 ) lam15n2 ) ( * Nl2main_i1 lam15n4 ) ( * Nl2main_i2 lam15n5 ) ( - ( - RFN1_main_i ) ) ) 0 ) ( = ( + ( * ( - 1 ) lam15n0 ) ( * 1 lam15n2 ) ( * ( - 1 ) lam15n3 ) ( * Nl2main_w1 lam15n4 ) ( * Nl2main_w2 lam15n5 ) ( - ( - RFN1_main_w ) ) ) 0 ) ) ( and ( >= lam16n0 0 ) ( >= lam16n1 0 ) ( >= lam16n2 0 ) ( >= lam16n3 0 ) ( >= lam16n4 0 ) ( >= lam16n5 0 ) ( > ( + ( * 1 lam16n1 ) ( * 1 lam16n2 ) ( * 1 lam16n3 ) ( * Nl2CT1 lam16n4 ) ( * Nl2CT2 lam16n5 ) ( - 1 ( + ( - ( + ( + RFN1_CT ( * RFN1_main_i ( - 1 ) ) ) ( * RFN1_main_w 1 ) ) RFN1_CT ) 1 ) ) ) 0 ) ( = ( + ( * ( - 1 ) lam16n0 ) ( * ( - 1 ) lam16n1 ) ( * ( - 1 ) lam16n2 ) ( * Nl2main_i1 lam16n4 ) ( * Nl2main_i2 lam16n5 ) ( - ( - ( + 0 ( * RFN1_main_i ( - 1 ) ) ) RFN1_main_i ) ) ) 0 ) ( = ( + ( * ( - 1 ) lam16n0 ) ( * 1 lam16n2 ) ( * ( - 1 ) lam16n3 ) ( * Nl2main_w1 lam16n4 ) ( * Nl2main_w2 lam16n5 ) ( - ( - ( + 0 ( * RFN1_main_w 1 ) ) RFN1_main_w ) ) ) 0 ) ) ) ) ) ( or ( and ( >= lam10n0 0 ) ( >= lam10n1 0 ) ( >= lam10n2 0 ) ( >= lam10n3 0 ) ( >= lam10n4 0 ) ( >= lam10n5 0 ) ( > ( + ( * 1 lam10n1 ) ( * 1 lam10n2 ) ( * 1 lam10n3 ) ( * Nl2CT1 lam10n4 ) ( * Nl2CT2 lam10n5 ) ( - 1 ) ) 0 ) ( = ( + ( * 1 lam10n0 ) ( * 1 lam10n1 ) ( * 1 lam10n2 ) ( * Nl2main_i1 lam10n4 ) ( * Nl2main_i2 lam10n5 ) ) 0 ) ( = ( + ( * ( - 1 ) lam10n0 ) ( * 1 lam10n2 ) ( * ( - 1 ) lam10n3 ) ( * Nl2main_w1 lam10n4 ) ( * Nl2main_w2 lam10n5 ) ) 0 ) ) ( and ( >= lam14n0 0 ) ( >= lam14n1 0 ) ( >= lam14n2 0 ) ( >= lam14n3 0 ) ( >= lam14n4 0 ) ( >= lam14n5 0 ) ( > ( + ( * 1 lam14n1 ) ( * 1 lam14n2 ) ( * 1 lam14n3 ) ( * Nl2CT1 lam14n4 ) ( * Nl2CT2 lam14n5 ) ( - 1 ) ) 0 ) ( = ( + ( * ( - 1 ) lam14n0 ) ( * ( - 1 ) lam14n1 ) ( * ( - 1 ) lam14n2 ) ( * Nl2main_i1 lam14n4 ) ( * Nl2main_i2 lam14n5 ) ) 0 ) ( = ( + ( * ( - 1 ) lam14n0 ) ( * 1 lam14n2 ) ( * ( - 1 ) lam14n3 ) ( * Nl2main_w1 lam14n4 ) ( * Nl2main_w2 lam14n5 ) ) 0 ) ) ) ))
(check-sat)
(exit)
